benchmarks/bfuzz0/10562628834704413148323682199469.smt2
(set-logic QF_FP)
(declare-const x0 (_ FloatingPoint 11 53))
(declare-const x1 (_ FloatingPoint 11 53))
(declare-const x2 (_ FloatingPoint 11 53))
(declare-const x3 (_ FloatingPoint 11 53))
(declare-const x4 (_ FloatingPoint 11 53))
(declare-const x5 (_ FloatingPoint 11 53))
(declare-const x6 (_ FloatingPoint 11 53))
(declare-const x7 (_ FloatingPoint 11 53))
(declare-const x8 (_ FloatingPoint 11 53))
(declare-const x9 (_ FloatingPoint 11 53))
(declare-const x10 (_ FloatingPoint 11 53))
(declare-const x11 (_ FloatingPoint 11 53))
(declare-const x12 (_ FloatingPoint 11 53))
(assert (fp.lt (fp.div RNE (fp.sub RNE (fp.neg (fp.sub RNE x11 x12)) (fp.neg (fp.div RNE x5 x0))) (fp.add RNE (fp.mul RNE (fp.neg x8) (fp.mul RNE x4 x11)) (fp.sub RNE (fp.mul RNE x9 x12) (fp.sub RNE x11 x2)))) (fp.neg (fp.add RNE (fp.div RNE (fp.neg x3) (fp.neg x5)) (fp.neg (fp.neg x12))))))
(assert (fp.eq (fp.sub RNE (fp.add RNE (fp.neg (fp.neg x10)) (fp.add RNE (fp.add RNE x10 x10) (fp.neg x2))) (fp.div RNE (fp.neg (fp.sub RNE x5 x6)) (fp.mul RNE (fp.div RNE x7 x10) (fp.add RNE x5 x2)))) (fp.neg (fp.neg (fp.div RNE (fp.neg x6) (fp.sub RNE x6 x10))))))
(assert (fp.geq (fp.div RNE (fp.mul RNE (fp.add RNE (fp.add RNE x12 x5) (fp.neg x3)) (fp.div RNE (fp.add RNE x5 x3) (fp.sub RNE x5 x3))) (fp.neg (fp.neg (fp.mul RNE x3 x5)))) (fp.add RNE (fp.add RNE (fp.div RNE (fp.mul RNE x5 x7) (fp.neg x7)) (fp.mul RNE (fp.sub RNE x6 x11) (fp.div RNE x2 x0))) (fp.sub RNE (fp.div RNE (fp.div RNE x5 x11) (fp.sub RNE x4 x5)) (fp.sub RNE (fp.neg x9) (fp.div RNE x0 x5))))))
(check-sat)
