db/data/10562628834704413148323682199469.z3.out
-------------------
2500.230755684
